c preprocessed version of 1aba_graph, 85 vertices, 886 edges
p td 85 886
83 84
82 84
82 83
81 84
81 83
81 82
80 84
80 83
80 82
80 81
79 84
79 83
79 82
79 81
79 80
78 82
78 81
78 80
78 79
77 84
77 81
77 80
77 79
77 78
76 83
76 81
76 80
76 79
76 78
76 77
75 81
75 80
75 79
75 78
75 77
75 76
74 82
74 81
74 79
74 78
74 77
74 76
74 75
73 83
73 82
73 81
73 79
73 78
73 76
73 75
73 74
72 79
72 78
72 75
72 74
72 73
71 82
71 79
71 73
71 72
70 72
70 71
69 82
69 73
69 71
69 70
68 83
68 82
68 79
68 73
68 71
68 70
68 69
67 83
67 82
67 81
67 79
67 78
67 74
67 73
67 72
67 71
67 70
67 69
67 68
66 82
66 79
66 74
66 73
66 72
66 71
66 70
66 69
66 68
66 67
65 83
65 82
65 81
65 80
65 79
65 78
65 76
65 75
65 74
65 73
65 72
65 71
65 69
65 68
65 67
65 66
64 79
64 78
64 75
64 74
64 73
64 72
64 70
64 67
64 66
64 65
63 82
63 79
63 78
63 77
63 76
63 75
63 74
63 73
63 72
63 66
63 65
63 64
62 75
62 66
62 65
62 64
62 63
61 78
61 77
61 76
61 75
61 74
61 64
61 63
61 62
60 75
60 74
60 72
60 66
60 64
60 63
60 62
60 61
59 75
59 64
59 61
59 60
58 61
58 60
58 59
57 64
57 62
57 61
57 60
57 59
57 58
56 60
56 59
56 58
56 57
55 60
55 58
55 57
55 56
54 75
54 74
54 72
54 66
54 64
54 60
54 59
54 58
54 57
54 56
54 55
53 72
53 71
53 70
53 66
53 64
53 55
53 54
52 75
52 74
52 73
52 72
52 66
52 65
52 64
52 62
52 61
52 60
52 59
52 58
52 57
52 56
52 54
52 53
51 73
51 72
51 71
51 70
51 67
51 66
51 65
51 64
51 60
51 54
51 53
51 52
50 72
50 70
50 66
50 55
50 54
50 53
50 52
50 51
49 64
49 62
49 60
49 57
49 56
49 55
49 54
49 53
49 52
49 51
49 50
48 75
48 74
48 72
48 66
48 65
48 64
48 63
48 62
48 61
48 60
48 57
48 54
48 52
48 51
48 50
48 49
47 72
47 70
47 66
47 64
47 52
47 51
47 50
47 49
47 48
46 57
46 55
46 50
46 49
46 48
46 47
45 64
45 62
45 60
45 57
45 56
45 54
45 52
45 49
45 48
45 47
45 46
44 66
44 64
44 62
44 60
44 51
44 48
44 47
44 46
44 45
43 50
43 48
43 47
43 46
43 45
43 44
42 57
42 49
42 47
42 46
42 45
42 44
42 43
41 48
41 47
41 45
41 44
41 43
41 42
40 62
40 60
40 57
40 49
40 48
40 46
40 45
40 44
40 43
40 42
40 41
39 45
39 43
39 42
39 41
39 40
38 40
38 39
37 39
37 38
36 41
36 40
36 39
36 38
36 37
35 44
35 43
35 42
35 41
35 40
35 39
35 37
35 36
34 64
34 62
34 60
34 57
34 48
34 45
34 44
34 42
34 41
34 40
34 39
34 38
34 37
34 36
34 35
33 66
33 64
33 63
33 62
33 61
33 60
33 57
33 52
33 51
33 49
33 48
33 47
33 46
33 45
33 44
33 43
33 42
33 41
33 40
33 39
33 35
33 34
32 65
32 62
32 48
32 44
32 41
32 36
32 35
32 34
32 33
31 66
31 65
31 64
31 62
31 51
31 48
31 47
31 45
31 44
31 43
31 41
31 35
31 34
31 33
31 32
30 79
30 65
30 63
30 62
30 44
30 33
30 32
30 31
29 66
29 65
29 51
29 48
29 47
29 44
29 33
29 32
29 31
29 30
28 83
28 82
28 79
28 76
28 73
28 68
28 67
28 66
28 65
28 63
28 32
28 31
28 30
28 29
27 68
27 30
27 29
27 28
26 83
26 82
26 79
26 73
26 71
26 69
26 68
26 67
26 66
26 65
26 28
26 27
25 83
25 27
25 26
24 84
24 83
24 82
24 80
24 79
24 76
24 73
24 68
24 67
24 65
24 28
24 26
24 25
23 84
23 83
23 80
23 79
23 76
23 26
23 25
23 24
22 79
22 30
22 28
22 27
22 26
22 25
22 24
22 23
21 83
21 82
21 80
21 79
21 76
21 73
21 68
21 67
21 66
21 65
21 63
21 30
21 29
21 28
21 27
21 26
21 25
21 24
21 23
21 22
20 84
20 83
20 82
20 80
20 79
20 77
20 76
20 75
20 73
20 67
20 65
20 63
20 28
20 26
20 24
20 23
20 22
20 21
19 83
19 80
19 79
19 76
19 30
19 28
19 24
19 23
19 22
19 21
19 20
18 79
18 76
18 65
18 63
18 32
18 31
18 30
18 29
18 28
18 27
18 26
18 23
18 22
18 21
18 20
18 19
17 83
17 82
17 80
17 79
17 78
17 76
17 75
17 74
17 73
17 67
17 66
17 65
17 64
17 63
17 62
17 48
17 33
17 32
17 30
17 29
17 28
17 26
17 24
17 22
17 21
17 20
17 19
17 18
16 83
16 80
16 79
16 77
16 76
16 75
16 65
16 63
16 24
16 23
16 21
16 20
16 19
16 18
16 17
15 76
15 32
15 30
15 28
15 22
15 20
15 19
15 18
15 17
15 16
14 80
14 79
14 78
14 77
14 76
14 75
14 65
14 64
14 63
14 62
14 61
14 20
14 17
14 16
14 15
13 80
13 77
13 76
13 61
13 20
13 19
13 17
13 16
13 15
13 14
12 62
12 37
12 15
12 14
12 13
11 62
11 61
11 45
11 40
11 39
11 38
11 37
11 36
11 35
11 34
11 33
11 32
11 12
10 41
10 38
10 37
10 36
10 35
10 34
10 32
10 30
10 12
10 11
9 37
9 36
9 35
9 34
9 32
9 30
9 18
9 15
9 12
9 11
9 10
8 62
8 32
8 30
8 19
8 18
8 16
8 15
8 13
8 12
8 11
8 10
8 9
7 44
7 41
7 37
7 36
7 35
7 34
7 33
7 32
7 31
7 30
7 28
7 18
7 15
7 11
7 10
7 9
7 8
6 64
6 63
6 62
6 61
6 60
6 57
6 48
6 45
6 44
6 41
6 40
6 39
6 37
6 36
6 35
6 34
6 33
6 32
6 30
6 18
6 15
6 14
6 12
6 11
6 10
6 8
6 7
5 79
5 65
5 64
5 63
5 62
5 60
5 48
5 44
5 34
5 33
5 32
5 31
5 30
5 29
5 28
5 21
5 18
5 17
5 15
5 8
5 7
5 6
4 79
4 75
4 72
4 66
4 65
4 64
4 63
4 62
4 61
4 60
4 57
4 54
4 52
4 51
4 49
4 48
4 47
4 45
4 44
4 43
4 41
4 40
4 35
4 34
4 33
4 32
4 31
4 30
4 29
4 28
4 18
4 17
4 11
4 6
4 5
3 83
3 82
3 79
3 78
3 76
3 75
3 74
3 73
3 68
3 67
3 66
3 65
3 64
3 63
3 62
3 48
3 44
3 33
3 32
3 31
3 30
3 29
3 28
3 27
3 26
3 24
3 22
3 21
3 20
3 18
3 17
3 16
3 15
3 14
3 7
3 5
3 4
2 79
2 72
2 70
2 69
2 68
2 67
2 66
2 65
2 64
2 63
2 62
2 52
2 51
2 48
2 47
2 44
2 33
2 32
2 31
2 30
2 29
2 28
2 27
2 26
2 21
2 18
2 17
2 5
2 4
2 3
1 83
1 82
1 79
1 78
1 76
1 73
1 71
1 69
1 68
1 67
1 66
1 65
1 63
1 51
1 30
1 29
1 28
1 27
1 26
1 24
1 22
1 21
1 20
1 18
1 17
1 5
1 3
1 2
0 68
0 66
0 31
0 29
0 28
0 27
0 26
0 21
0 18
0 3
0 2
0 1
